p tw 50 358
0 1
0 2
0 21
0 22
0 30
0 31
0 39
0 40
0 41
0 33
0 46
0 10
0 48
0 11
1 2
1 6
1 7
1 12
1 40
1 13
1 21
1 24
1 19
1 34
1 47
1 8
1 20
1 28
1 4
1 35
2 39
2 31
2 35
2 38
2 13
2 44
2 49
2 40
2 47
2 34
2 46
3 4
3 5
3 16
3 34
3 35
3 9
3 12
3 48
3 6
3 28
3 49
3 37
3 45
3 7
4 5
4 16
4 32
4 35
4 48
4 19
4 29
4 34
4 43
4 26
4 13
4 21
4 24
4 28
4 41
5 16
5 36
5 42
5 33
5 45
5 39
5 47
5 48
5 11
5 10
5 41
5 20
5 8
6 7
6 14
6 17
6 8
6 31
6 30
6 28
6 24
6 10
6 45
7 25
7 33
7 30
7 19
7 26
7 36
7 32
7 38
7 49
7 40
8 9
8 10
8 31
8 12
8 13
8 24
8 25
8 20
8 28
8 41
8 27
8 16
8 15
8 30
8 38
9 10
9 12
9 31
9 38
9 48
9 28
9 30
9 15
9 35
9 36
9 25
9 49
10 24
10 25
10 49
10 41
10 48
11 12
11 13
11 15
11 20
11 17
11 32
11 47
11 46
11 49
11 28
11 42
11 30
12 13
12 40
12 29
12 42
12 17
12 31
13 39
13 16
13 41
13 22
13 27
13 34
13 44
13 14
13 37
13 21
13 42
13 45
13 46
14 15
14 16
14 17
14 28
14 29
14 21
14 33
14 37
14 43
14 41
14 45
14 27
14 36
15 16
15 20
15 23
15 29
15 41
15 46
15 32
15 17
15 38
15 30
15 36
16 28
16 32
16 41
16 43
16 17
16 38
16 42
17 18
17 19
17 42
17 44
17 37
17 47
17 38
17 36
18 19
18 21
18 23
18 33
18 39
18 44
18 48
18 34
18 47
18 31
19 42
19 39
19 40
19 34
19 29
19 47
19 48
19 23
19 26
20 23
20 37
20 25
20 36
20 45
20 30
20 28
21 22
21 23
21 24
21 33
21 41
21 43
21 27
22 25
22 42
22 27
22 34
22 36
22 35
22 43
22 45
22 26
22 46
23 29
23 37
23 46
23 49
23 27
23 32
23 45
23 25
23 26
24 25
24 49
24 31
24 27
24 43
25 33
25 26
25 27
25 37
25 42
25 32
25 48
26 27
26 28
26 31
26 44
26 36
26 38
26 41
26 49
26 32
26 45
27 28
27 43
27 33
27 40
27 36
28 32
28 29
28 30
28 41
29 42
29 35
29 46
29 32
29 44
29 48
29 45
30 31
30 48
30 40
31 44
31 39
31 38
31 33
31 46
32 44
32 45
32 38
33 45
33 43
33 46
33 39
33 40
33 44
34 35
34 42
34 43
34 44
34 36
34 47
35 44
35 38
35 46
35 48
35 49
35 37
35 36
35 42
36 37
36 38
36 42
36 45
36 43
37 38
37 46
37 49
37 43
37 47
38 48
38 39
38 42
39 47
39 40
39 49
39 42
40 41
40 47
40 45
40 48
40 44
41 46
41 45
42 43
42 47
43 47
44 48
44 49
45 48
46 49
47 49
